20	100	100	100
5	100	100
4	100	100
2	100	100
29	100	100
40	100	100
7	100	100
30	100	100
47	100	100
1	100	100
22	100	100
16	100	100
26	100	100
22	100	100
39	100	100
31	100	100
35	100	100
4	100	100
6	100	100
16	100	100
41	100	100
